(set-logic HORN)
(set-info :source |
  Benchmark: test_safe_2019/esop2017/various.ml
  Generated by MoCHi
|)
(set-info :status unknown)
(declare-fun |fail_39[100:0]| ( Int) Bool)
(declare-fun |mc91[92:2][95:0]| ( Int  Int  Int) Bool)
(declare-fun |mc91[92:1]| ( Int  Int) Bool)
(assert (not (exists ((x0 Int)) (|fail_39[100:0]| x0))))
(assert (forall ((x0 Int)(x2 Int)(x1 Int)) (=> (and (|mc91[92:2][95:0]| x1 x1 x2) (and (not (= x2 91)) (<= x1 101))) (|fail_39[100:0]| x0))))
(assert (forall ((x1 Int)(x2 Int)(x0 Int)) (=> (and (|mc91[92:1]| x1 x2) (and (= (+ 10 x0) x2) (>= x2 101))) (|mc91[92:2][95:0]| x1 x2 x0))))
(assert (forall ((x1 Int)(x0 Int)) (=> (and (<= x1 101) (= x1 x0)) (|mc91[92:1]| x1 x0))))
(check-sat)
(get-model)
(exit)
